feasible solution found by trivial heuristic after 0.1 seconds, objective value 5.993000e+03
presolving:
(round 1, fast)       31 del vars, 10456 del conss, 0 add conss, 0 chg bounds, 0 chg sides, 0 chg coeffs, 0 upgd conss, 0 impls, 0 clqs
   (0.3s) running MILP presolver
   (0.4s) MILP presolver found nothing
(round 2, exhaustive) 31 del vars, 10456 del conss, 0 add conss, 0 chg bounds, 0 chg sides, 0 chg coeffs, 750 upgd conss, 0 impls, 0 clqs
   (0.6s) probing: 51/562 (9.1%) - 0 fixings, 0 aggregations, 0 implications, 0 bound changes
   (0.6s) probing aborted: 50/50 successive totally useless probings
   (0.9s) symmetry computation started: requiring (bin +, int -, cont +), (fixed: bin -, int +, cont -)
   (0.9s) no symmetry present
presolving (3 rounds: 3 fast, 2 medium, 2 exhaustive):
 31 deleted vars, 10456 deleted constraints, 0 added constraints, 0 tightened bounds, 0 added holes, 0 changed sides, 0 changed coefficients
 0 implications, 0 cliques
presolved problem has 562 variables (562 bin, 0 int, 0 impl, 0 cont) and 750 constraints
    750 constraints of type <logicor>
transformed objective value is always integral (scale: 1)
Presolving Time: 0.89
transformed 1/2 original solutions to the transformed problem space

 time | node  | left  |LP iter|LP it/n|mem/heur|mdpt |vars |cons |rows |cuts |sepa|confs|strbr|  dualbound   | primalbound  |  gap   | compl. 
p 1.1s|     1 |     0 |     0 |     - |   locks|   0 | 562 | 750 | 750 |   0 |  0 |   0 |   0 | 0.000000e+00 | 7.000000e+01 |    Inf | unknown
  1.1s|     1 |     0 |   195 |     - |   202M |   0 | 562 | 750 | 750 |   0 |  0 |   0 |   0 | 4.277432e+00 | 7.000000e+01 |1536.50%| unknown
r 1.1s|     1 |     0 |   195 |     - |simplero|   0 | 562 | 750 | 750 |   0 |  0 |   0 |   0 | 4.277432e+00 | 5.300000e+01 |1139.06%| unknown
r 1.1s|     1 |     0 |   195 |     - |rounding|   0 | 562 | 750 | 750 |   0 |  0 |   0 |   0 | 4.277432e+00 | 5.200000e+01 |1115.68%| unknown
r 1.1s|     1 |     0 |   195 |     - |shifting|   0 | 562 | 750 | 750 |   0 |  0 |   0 |   0 | 4.277432e+00 | 5.100000e+01 |1092.30%| unknown
i 1.1s|     1 |     0 |   195 |     - |  oneopt|   0 | 562 | 750 | 750 |   0 |  0 |   0 |   0 | 4.277432e+00 | 8.000000e+00 |  87.03%| unknown
  1.3s|     1 |     0 |   237 |     - |   202M |   0 | 562 | 750 | 751 |   1 |  1 |   0 |   0 | 4.320999e+00 | 8.000000e+00 |  85.14%| unknown
  1.3s|     1 |     0 |   237 |     - |   202M |   0 | 562 | 750 | 751 |   1 |  1 |   0 |   0 | 4.320999e+00 | 8.000000e+00 |  85.14%| unknown
  1.3s|     1 |     0 |   237 |     - |   202M |   0 | 562 | 750 | 751 |   1 |  1 |   0 |   0 | 4.320999e+00 | 8.000000e+00 |  85.14%| unknown
  1.4s|     1 |     0 |   254 |     - |   202M |   0 | 562 | 750 | 752 |   2 |  2 |   0 |   0 | 4.335994e+00 | 8.000000e+00 |  84.50%| unknown
  1.4s|     1 |     0 |   254 |     - |   203M |   0 | 562 | 750 | 752 |   2 |  2 |   0 |   0 | 4.335994e+00 | 8.000000e+00 |  84.50%| unknown
  1.5s|     1 |     0 |   279 |     - |   203M |   0 | 562 | 750 | 753 |   3 |  3 |   0 |   0 | 4.349383e+00 | 8.000000e+00 |  83.93%| unknown
  1.6s|     1 |     0 |   314 |     - |   204M |   0 | 562 | 750 | 754 |   4 |  4 |   0 |   0 | 4.357867e+00 | 8.000000e+00 |  83.58%| unknown
  1.7s|     1 |     0 |   339 |     - |   204M |   0 | 562 | 750 | 755 |   5 |  5 |   0 |   0 | 4.361135e+00 | 8.000000e+00 |  83.44%| unknown
  1.7s|     1 |     0 |   371 |     - |   205M |   0 | 562 | 750 | 756 |   6 |  6 |   0 |   0 | 4.363847e+00 | 8.000000e+00 |  83.32%| unknown
 time | node  | left  |LP iter|LP it/n|mem/heur|mdpt |vars |cons |rows |cuts |sepa|confs|strbr|  dualbound   | primalbound  |  gap   | compl. 
  1.8s|     1 |     0 |   418 |     - |   206M |   0 | 562 | 750 | 757 |   7 |  7 |   0 |   0 | 4.372576e+00 | 8.000000e+00 |  82.96%| unknown
  2.0s|     1 |     0 |   442 |     - |   206M |   0 | 562 | 750 | 758 |   8 |  8 |   0 |   0 | 4.376394e+00 | 8.000000e+00 |  82.80%| unknown
  2.1s|     1 |     0 |   464 |     - |   208M |   0 | 562 | 750 | 759 |   9 |  9 |   0 |   0 | 4.378433e+00 | 8.000000e+00 |  82.71%| unknown
  2.2s|     1 |     0 |   496 |     - |   208M |   0 | 562 | 750 | 760 |  10 | 10 |   0 |   0 | 4.380025e+00 | 8.000000e+00 |  82.65%| unknown
  2.2s|     1 |     0 |   513 |     - |   208M |   0 | 562 | 750 | 761 |  11 | 11 |   0 |   0 | 4.380833e+00 | 8.000000e+00 |  82.61%| unknown
  2.2s|     1 |     0 |   529 |     - |   208M |   0 | 562 | 750 | 762 |  12 | 12 |   0 |   0 | 4.381355e+00 | 8.000000e+00 |  82.59%| unknown
  2.3s|     1 |     0 |   538 |     - |   208M |   0 | 562 | 750 | 763 |  13 | 13 |   0 |   0 | 4.381634e+00 | 8.000000e+00 |  82.58%| unknown
  2.3s|     1 |     0 |   563 |     - |   208M |   0 | 562 | 750 | 764 |  14 | 14 |   0 |   0 | 4.382513e+00 | 8.000000e+00 |  82.54%| unknown
  2.3s|     1 |     0 |   570 |     - |   208M |   0 | 562 | 750 | 765 |  15 | 15 |   0 |   0 | 4.382573e+00 | 8.000000e+00 |  82.54%| unknown
  2.3s|     1 |     0 |   585 |     - |   208M |   0 | 562 | 750 | 766 |  16 | 16 |   0 |   0 | 4.383022e+00 | 8.000000e+00 |  82.52%| unknown
  2.4s|     1 |     0 |   594 |     - |   208M |   0 | 562 | 750 | 766 |  17 | 17 |   0 |   0 | 4.383922e+00 | 8.000000e+00 |  82.49%| unknown
  2.4s|     1 |     0 |   604 |     - |   208M |   0 | 562 | 750 | 767 |  18 | 18 |   0 |   0 | 4.384188e+00 | 8.000000e+00 |  82.47%| unknown
  2.4s|     1 |     0 |   626 |     - |   208M |   0 | 562 | 750 | 768 |  19 | 19 |   0 |   0 | 4.388860e+00 | 8.000000e+00 |  82.28%| unknown
  2.4s|     1 |     0 |   626 |     - |   208M |   0 | 562 | 750 | 768 |  19 | 19 |   0 |   0 | 4.388860e+00 | 8.000000e+00 |  82.28%| unknown
  2.5s|     1 |     0 |   638 |     - |   208M |   0 | 562 | 750 | 769 |  20 | 20 |   0 |   0 | 4.389358e+00 | 8.000000e+00 |  82.26%| unknown
 time | node  | left  |LP iter|LP it/n|mem/heur|mdpt |vars |cons |rows |cuts |sepa|confs|strbr|  dualbound   | primalbound  |  gap   | compl. 
  2.5s|     1 |     0 |   648 |     - |   208M |   0 | 562 | 750 | 770 |  21 | 21 |   0 |   0 | 4.389984e+00 | 8.000000e+00 |  82.23%| unknown
L 4.3s|     1 |     0 |  1381 |     - |    rens|   0 | 562 | 754 | 770 |  21 | 23 |   4 |   0 | 4.389984e+00 | 8.000000e+00 |  82.23%| unknown
(run 1, node 1) restarting after 440 global fixings of integer variables

(restart) converted 20 cuts from the global cut pool into linear constraints

presolving:
(round 1, fast)       440 del vars, 0 del conss, 0 add conss, 0 chg bounds, 0 chg sides, 148150 chg coeffs, 0 upgd conss, 0 impls, 0 clqs
   (4.7s) running MILP presolver
   (4.7s) MILP presolver found nothing
(round 2, exhaustive) 440 del vars, 0 del conss, 0 add conss, 0 chg bounds, 0 chg sides, 148150 chg coeffs, 4 upgd conss, 0 impls, 0 clqs
presolving (3 rounds: 3 fast, 2 medium, 2 exhaustive):
 440 deleted vars, 0 deleted constraints, 0 added constraints, 0 tightened bounds, 0 added holes, 0 changed sides, 148150 changed coefficients
 0 implications, 0 cliques
presolved problem has 122 variables (122 bin, 0 int, 0 impl, 0 cont) and 774 constraints
      4 constraints of type <knapsack>
     17 constraints of type <linear>
    753 constraints of type <logicor>
transformed objective value is always integral (scale: 1)
Presolving Time: 1.01
transformed 86/89 original solutions to the transformed problem space

 time | node  | left  |LP iter|LP it/n|mem/heur|mdpt |vars |cons |rows |cuts |sepa|confs|strbr|  dualbound   | primalbound  |  gap   | compl. 
  4.8s|     1 |     0 |  1618 |     - |   207M |   0 | 122 | 774 | 770 |   0 |  0 |   4 |   0 | 4.389984e+00 | 8.000000e+00 |  82.23%| unknown
  4.9s|     1 |     0 |  1642 |     - |   207M |   0 | 122 | 774 | 771 |   1 |  1 |   4 |   0 | 4.391883e+00 | 8.000000e+00 |  82.15%| unknown
  4.9s|     1 |     0 |  1658 |     - |   207M |   0 | 122 | 774 | 772 |   2 |  2 |   4 |   0 | 4.393623e+00 | 8.000000e+00 |  82.08%| unknown
  5.0s|     1 |     0 |  1681 |     - |   207M |   0 | 122 | 774 | 773 |   3 |  3 |   4 |   0 | 4.395498e+00 | 8.000000e+00 |  82.00%| unknown
  5.1s|     1 |     0 |  1712 |     - |   207M |   0 | 122 | 774 | 774 |   4 |  4 |   4 |   0 | 4.396729e+00 | 8.000000e+00 |  81.95%| unknown
  5.1s|     1 |     0 |  1729 |     - |   208M |   0 | 122 | 774 | 775 |   5 |  5 |   4 |   0 | 4.397751e+00 | 8.000000e+00 |  81.91%| unknown
  5.1s|     1 |     0 |  1767 |     - |   208M |   0 | 122 | 774 | 776 |   6 |  6 |   4 |   0 | 4.399293e+00 | 8.000000e+00 |  81.85%| unknown
  5.2s|     1 |     0 |  1799 |     - |   208M |   0 | 122 | 774 | 777 |   7 |  7 |   4 |   0 | 4.402119e+00 | 8.000000e+00 |  81.73%| unknown
  5.2s|     1 |     0 |  1805 |     - |   208M |   0 | 122 | 774 | 778 |   8 |  8 |   4 |   0 | 4.402534e+00 | 8.000000e+00 |  81.71%| unknown
  5.3s|     1 |     0 |  1840 |     - |   208M |   0 | 122 | 774 | 779 |   9 |  9 |   4 |   0 | 4.411402e+00 | 8.000000e+00 |  81.35%| unknown
  5.3s|     1 |     0 |  1862 |     - |   210M |   0 | 122 | 774 | 780 |  10 | 10 |   4 |   0 | 4.415016e+00 | 8.000000e+00 |  81.20%| unknown
  5.3s|     1 |     0 |  1879 |     - |   211M |   0 | 122 | 774 | 775 |  11 | 11 |   4 |   0 | 4.417529e+00 | 8.000000e+00 |  81.10%| unknown
  5.3s|     1 |     0 |  1908 |     - |   211M |   0 | 122 | 774 | 776 |  12 | 12 |   4 |   0 | 4.421123e+00 | 8.000000e+00 |  80.95%| unknown
  5.4s|     1 |     0 |  1923 |     - |   211M |   0 | 122 | 774 | 777 |  13 | 13 |   4 |   0 | 4.422942e+00 | 8.000000e+00 |  80.88%| unknown
  5.4s|     1 |     0 |  1959 |     - |   211M |   0 | 122 | 774 | 778 |  14 | 14 |   4 |   0 | 4.428243e+00 | 8.000000e+00 |  80.66%| unknown
 time | node  | left  |LP iter|LP it/n|mem/heur|mdpt |vars |cons |rows |cuts |sepa|confs|strbr|  dualbound   | primalbound  |  gap   | compl. 
  5.4s|     1 |     0 |  1971 |     - |   211M |   0 | 122 | 774 | 779 |  15 | 15 |   4 |   0 | 4.430091e+00 | 8.000000e+00 |  80.58%| unknown
  5.4s|     1 |     0 |  1985 |     - |   211M |   0 | 122 | 774 | 780 |  16 | 16 |   4 |   0 | 4.431572e+00 | 8.000000e+00 |  80.52%| unknown
  5.4s|     1 |     0 |  2023 |     - |   211M |   0 | 122 | 774 | 774 |  17 | 17 |   4 |   0 | 4.437217e+00 | 8.000000e+00 |  80.29%| unknown
  5.4s|     1 |     0 |  2042 |     - |   211M |   0 | 122 | 774 | 775 |  18 | 18 |   4 |   0 | 4.440713e+00 | 8.000000e+00 |  80.15%| unknown
  5.5s|     1 |     0 |  2052 |     - |   211M |   0 | 122 | 774 | 776 |  19 | 19 |   4 |   0 | 4.442113e+00 | 8.000000e+00 |  80.09%| unknown
  5.5s|     1 |     0 |  2052 |     - |   211M |   0 | 122 | 774 | 776 |  19 | 19 |   4 |   0 | 4.442113e+00 | 8.000000e+00 |  80.09%| unknown
  5.5s|     1 |     0 |  2065 |     - |   211M |   0 | 122 | 774 | 777 |  20 | 20 |   4 |   0 | 4.443703e+00 | 8.000000e+00 |  80.03%| unknown
  5.5s|     1 |     0 |  2065 |     - |   211M |   0 | 122 | 774 | 777 |  20 | 20 |   4 |   0 | 4.443703e+00 | 8.000000e+00 |  80.03%| unknown
  7.3s|     1 |     2 |  2994 |     - |   211M |   0 | 122 | 774 | 777 |  20 | 22 |   4 |  19 | 4.516041e+00 | 8.000000e+00 |  77.15%| unknown
 10.7s|   100 |    17 |  9646 |  83.1 |   215M |  15 | 122 | 921 | 769 |  45 |  0 | 175 | 344 | 5.216056e+00 | 8.000000e+00 |  53.37%|  32.56%
 12.2s|   200 |    23 | 14046 |  63.6 |   216M |  22 | 122 | 971 | 773 |  59 |  0 | 254 | 470 | 5.336522e+00 | 8.000000e+00 |  49.91%|  35.91%
 13.8s|   300 |    63 | 19270 |  59.8 |   217M |  23 | 122 | 994 | 772 |  82 |  0 | 304 | 539 | 5.698936e+00 | 8.000000e+00 |  40.38%|  47.24%
 14.8s|   400 |    95 | 23292 |  54.9 |   217M |  23 | 122 |1024 | 769 |  92 |  0 | 339 | 581 | 5.975372e+00 | 8.000000e+00 |  33.88%|  54.15%
 15.9s|   500 |   117 | 27296 |  51.9 |   217M |  23 | 122 |1042 | 770 | 126 |  1 | 360 | 605 | 6.081155e+00 | 8.000000e+00 |  31.55%|  57.61%
 16.8s|   600 |   133 | 30610 |  48.8 |   217M |  24 | 122 |1055 | 769 | 146 |  0 | 387 | 641 | 6.250475e+00 | 8.000000e+00 |  27.99%|  61.51%
 time | node  | left  |LP iter|LP it/n|mem/heur|mdpt |vars |cons |rows |cuts |sepa|confs|strbr|  dualbound   | primalbound  |  gap   | compl. 
r17.7s|   699 |   142 | 33260 |  45.7 |shifting|  24 | 122 |1062 | 771 | 173 |  2 | 410 | 668 | 6.411792e+00 | 8.000000e+00 |  24.77%|  65.48%
 17.9s|   700 |   143 | 33320 |  45.7 |   217M |  24 | 122 |1062 | 771 | 178 |  0 | 410 | 668 | 6.411792e+00 | 8.000000e+00 |  24.77%|  65.48%
 18.6s|   800 |   139 | 35268 |  42.4 |   217M |  24 | 122 |1061 | 774 | 193 |  0 | 422 | 690 | 6.423878e+00 | 8.000000e+00 |  24.54%|  65.94%
 19.1s|   900 |   133 | 37071 |  39.7 |   217M |  24 | 122 |1066 | 769 | 199 |  0 | 431 | 702 | 6.501196e+00 | 8.000000e+00 |  23.05%|  68.60%
 19.8s|  1000 |   103 | 38533 |  37.2 |   217M |  24 | 122 |1066 | 774 | 210 |  0 | 440 | 710 | 6.545977e+00 | 8.000000e+00 |  22.21%|  70.56%
 20.6s|  1100 |    55 | 39673 |  34.9 |   217M |  25 | 122 |1071 | 769 | 211 |  0 | 452 | 727 | 6.599850e+00 | 8.000000e+00 |  21.21%|  72.97%
*20.7s|  1113 |     0 | 39767 |  34.5 |    LP  |  25 | 122 | 774 | 775 | 211 |  1 | 454 | 732 | 7.000000e+00 | 7.000000e+00 |   0.00%| 100.00%

SCIP Status        : problem is solved [optimal solution found]
Solving Time (sec) : 20.68
Solving Nodes      : 1113 (total of 1114 nodes in 2 runs)
Primal Bound       : +7.00000000000000e+00 (468 solutions)
Dual Bound         : +7.00000000000000e+00
Gap                : 0.00 %
Solve Status: optimal
Solve Time: 20.68 seconds
